10
5
473055
0
0
50 53 55 54 53
1
0
60 63 63 63 71
2
0
49 51 43 48 44
3
0
49 48 48 50 47
4
0
33 37 36 37 35
5
0
53 49 53 52 52
6
0
44 43 44 43 43
7
0
38 38 41 39 38
8
0
61 64 60 65 61
9
0
48 47 48 46 47
